Nb of jobs, Nb of Machines, Time seed, Machine seed, Upper bound, Lower bound
5,10,-1,-1,-1,-1
Times
92,35,57,45,70,1,84,98,76,6
11,46,20,70,17,26,87,66,94,25
27,33,7,68,54,28,88,39,25,85
62,54,63,29,69,37,2,87,27,62
56,95,55,69,85,87,97,24,18,97
Machines
1,8,9,5,3,7,4,10,6,2
9,4,6,3,10,1,8,5,7,2
6,9,7,4,3,10,1,5,8,2
1,6,5,3,10,9,4,2,7,8
3,8,7,10,9,2,1,5,4,6
